clingo version 5.5.2
Reading from ...nt/beegfs/home/jubruns/encoding/mif.lp ...
Solving...
Answer: 1
move(1,(5,5),(4,5),1) move(5,(4,5),(4,4),1) move(1,(4,5),(4,6),2) move(2,(3,2),(3,3),2) move(3,(5,4),(5,5),2) move(4,(1,3),(1,2),2) move(5,(4,4),(5,4),2)
SATISFIABLE

Models       : 1+
Calls        : 1
Time         : 0.038s (Solving: 0.00s 1st Model: 0.00s Unsat: 0.00s)
CPU Time     : 0.010s

Choices      : 3        (Domain: 3)
Conflicts    : 0        (Analyzed: 0)
Restarts     : 0       
Model-Level  : 3.0     
Problems     : 1        (Average Length: 0.00 Splits: 0)
Lemmas       : 0        (Deleted: 0)
  Binary     : 0        (Ratio:   0.00%)
  Ternary    : 0        (Ratio:   0.00%)
  Conflict   : 0        (Average Length:    0.0 Ratio:   0.00%) 
  Loop       : 0        (Average Length:    0.0 Ratio:   0.00%) 
  Other      : 0        (Average Length:    0.0 Ratio:   0.00%) 
Backjumps    : 0        (Average:  0.00 Max:   0 Sum:      0)
  Executed   : 0        (Average:  0.00 Max:   0 Sum:      0 Ratio:   0.00%)
  Bounded    : 0        (Average:  0.00 Max:   0 Sum:      0 Ratio: 100.00%)

Rules        : 2294     (Original: 2220)
  Choice     : 10      
  Heuristic  : 45       (Original: 71)
Atoms        : 1297    
Bodies       : 1196     (Original: 1096)
  Count      : 15       (Original: 37)
Equivalences : 2816     (Atom=Atom: 33 Body=Body: 45 Other: 2738)
Tight        : Yes
Variables    : 1121     (Eliminated:    0 Frozen:  709)
Constraints  : 1310     (Binary:  86.2% Ternary:   0.6% Other:  13.2%)

